outputs/models/Extended_LCD_ILP_2_17_6_3.lp
\ Model Extended ILP
\ LP format - for model browsing. Use MPS format to capture full model detail.
\ Signature: 0x61ae99d3f72e06b9
Maximize
  A[0] + A[1] + A[2] + A[3] + A[4] + A[5] + A[6] + A[7] + A[8] + A[9]
   + A[10] + A[11]
Subject To
 R0: 5 A[0] + 3 A[1] + A[2] - A[3] - 3 A[4] - 5 A[5] - 7 A[6] - 9 A[7]
   - 11 A[8] - 13 A[9] - 15 A[10] - 17 A[11] >= -17
 R1: 4 A[0] - 4 A[1] - 8 A[2] - 8 A[3] - 4 A[4] + 4 A[5] + 16 A[6]
   + 32 A[7] + 52 A[8] + 76 A[9] + 104 A[10] + 136 A[11] >= -136
 R2: - 20 A[0] - 20 A[1] - 8 A[2] + 8 A[3] + 20 A[4] + 20 A[5] - 48 A[7]
   - 132 A[8] - 260 A[9] - 440 A[10] - 680 A[11] >= -680
 R3: - 40 A[0] + 28 A[2] + 28 A[3] - 40 A[5] - 60 A[6] - 12 A[7] + 168 A[8]
   + 560 A[9] + 1260 A[10] + 2380 A[11] >= -2380
 R4: 16 A[0] + 56 A[1] + 28 A[2] - 28 A[3] - 56 A[4] - 16 A[5] + 84 A[6]
   + 156 A[7] - 728 A[9] - 2548 A[10] - 6188 A[11] >= -6188
 R5: 100 A[0] + 28 A[1] - 56 A[2] - 56 A[3] + 28 A[4] + 100 A[5] + 32 A[6]
   - 208 A[7] - 364 A[8] + 364 A[9] + 3640 A[10] + 12376 A[11] >= -12376
 R6: 44 A[0] - 84 A[1] - 56 A[2] + 56 A[3] + 84 A[4] - 44 A[5] - 176 A[6]
   + 572 A[8] + 572 A[9] - 3432 A[10] - 19448 A[11] >= -19448
 R7: - 110 A[0] - 70 A[1] + 70 A[2] + 70 A[3] - 70 A[4] - 110 A[5]
   + 110 A[6] + 286 A[7] - 286 A[8] - 1430 A[9] + 1430 A[10] + 24310 A[11]
   >= -24310
 R8: - 110 A[0] + 70 A[1] + 70 A[2] - 70 A[3] - 70 A[4] + 110 A[5]
   + 110 A[6] - 286 A[7] - 286 A[8] + 1430 A[9] + 1430 A[10] - 24310 A[11]
   >= -24310
 R9: 44 A[0] + 84 A[1] - 56 A[2] - 56 A[3] + 84 A[4] + 44 A[5] - 176 A[6]
   + 572 A[8] - 572 A[9] - 3432 A[10] + 19448 A[11] >= -19448
 R10: 100 A[0] - 28 A[1] - 56 A[2] + 56 A[3] + 28 A[4] - 100 A[5] + 32 A[6]
   + 208 A[7] - 364 A[8] - 364 A[9] + 3640 A[10] - 12376 A[11] >= -12376
 R11: 16 A[0] - 56 A[1] + 28 A[2] + 28 A[3] - 56 A[4] + 16 A[5] + 84 A[6]
   - 156 A[7] + 728 A[9] - 2548 A[10] + 6188 A[11] >= -6188
 R12: - 40 A[0] + 28 A[2] - 28 A[3] + 40 A[5] - 60 A[6] + 12 A[7]
   + 168 A[8] - 560 A[9] + 1260 A[10] - 2380 A[11] >= -2380
 R13: - 20 A[0] + 20 A[1] - 8 A[2] - 8 A[3] + 20 A[4] - 20 A[5] + 48 A[7]
   - 132 A[8] + 260 A[9] - 440 A[10] + 680 A[11] >= -680
 R14: 4 A[0] + 4 A[1] - 8 A[2] + 8 A[3] - 4 A[4] - 4 A[5] + 16 A[6]
   - 32 A[7] + 52 A[8] - 76 A[9] + 104 A[10] - 136 A[11] >= -136
 R15: 5 A[0] - 3 A[1] + A[2] + A[3] - 3 A[4] + 5 A[5] - 7 A[6] + 9 A[7]
   - 11 A[8] + 13 A[9] - 15 A[10] + 17 A[11] >= -17
 R16: A[0] - A[1] + A[2] - A[3] + A[4] - A[5] + A[6] - A[7] + A[8] - A[9]
   + A[10] - A[11] >= -1
 R17: 12268 A[0] + 12348 A[1] + 12432 A[2] + 12432 A[3] + 12348 A[4]
   + 12276 A[5] + 12344 A[6] + 12584 A[7] + 12740 A[8] + 12012 A[9]
   + 8736 A[10] >= 0
 R18: 19404 A[0] + 19524 A[1] + 19504 A[2] + 19392 A[3] + 19364 A[4]
   + 19492 A[5] + 19624 A[6] + 19448 A[7] + 18876 A[8] + 18876 A[9]
   + 22880 A[10] + 38896 A[11] >= 0
 R19: 24420 A[0] + 24380 A[1] + 24232 A[2] + 24240 A[3] + 24380 A[4]
   + 24420 A[5] + 24200 A[6] + 24024 A[7] + 24596 A[8] + 25740 A[9]
   + 22880 A[10] >= 0
 R20: 24420 A[0] + 24240 A[1] + 24240 A[2] + 24372 A[3] + 24380 A[4]
   + 24200 A[5] + 24200 A[6] + 24596 A[7] + 24596 A[8] + 22880 A[9]
   + 22880 A[10] + 48620 A[11] >= 0
 R21: 19404 A[0] + 19364 A[1] + 19504 A[2] + 19504 A[3] + 19356 A[4]
   + 19404 A[5] + 19624 A[6] + 19448 A[7] + 18876 A[8] + 20020 A[9]
   + 22880 A[10] >= 0
 R22: 12276 A[0] + 12404 A[1] + 12432 A[2] + 12320 A[3] + 12348 A[4]
   + 12468 A[5] + 12344 A[6] + 12168 A[7] + 12740 A[8] + 12740 A[9]
   + 8736 A[10] + 24752 A[11] >= 0
 R23: 6172 A[0] + 6244 A[1] + 6160 A[2] + 6160 A[3] + 6244 A[4] + 6172 A[5]
   + 6096 A[6] + 6344 A[7] + 6188 A[8] + 5460 A[9] + 8736 A[10] >= 0
 R24: 2420 A[0] + 2380 A[1] + 2352 A[2] + 2408 A[3] + 2380 A[4] + 2340 A[5]
   + 2440 A[6] + 2360 A[7] + 2212 A[8] + 2940 A[9] + 1120 A[10]
   + 4760 A[11] >= 0
 R25: 700 A[0] + 660 A[1] + 688 A[2] + 688 A[3] + 660 A[4] + 700 A[5]
   + 680 A[6] + 632 A[7] + 804 A[8] + 420 A[9] + 1120 A[10] >= 0
 R26: 132 A[0] + 132 A[1] + 144 A[2] + 128 A[3] + 140 A[4] + 140 A[5]
   + 120 A[6] + 168 A[7] + 84 A[8] + 204 A[9] + 32 A[10] + 272 A[11] >= 0
 R27: 12 A[0] + 20 A[1] + 16 A[2] + 16 A[3] + 20 A[4] + 12 A[5] + 24 A[6]
   + 8 A[7] + 28 A[8] + 4 A[9] + 24 A[10] >= 0
 R28: 2 A[1] + 2 A[3] + 2 A[5] + 2 A[7] + 2 A[9] - 6 A[11] >= 0
 R29: A[0] + A[1] + A[2] + A[3] + A[4] + A[5] + A[6] + A[7] + A[8] + A[9]
   + A[10] + A[11] >= 8
 R30: A[0] + A[1] + A[2] + A[3] + A[4] + A[5] + A[6] + A[7] + A[8] + A[9]
   + A[10] + A[11] <= 512
Bounds
 A[0] <= 12376
 A[1] <= 19448
 A[2] <= 24310
 A[3] <= 24310
 A[4] <= 19448
 A[5] <= 12376
 A[6] <= 6188
 A[7] <= 2380
 A[8] <= 680
 A[9] <= 136
 A[10] <= 17
 A[11] <= 1
Generals
 A[0] A[1] A[2] A[3] A[4] A[5] A[6] A[7] A[8] A[9] A[10] A[11]
End
