outputs/models/Extended_LCD_ILP_2_17_6_3.mps
* Signature: 0x61ae99d3f72e06b9
NAME Extended ILP
OBJSENSE MAX
ROWS
 N  OBJ
 G  R0      
 G  R1      
 G  R2      
 G  R3      
 G  R4      
 G  R5      
 G  R6      
 G  R7      
 G  R8      
 G  R9      
 G  R10     
 G  R11     
 G  R12     
 G  R13     
 G  R14     
 G  R15     
 G  R16     
 G  R17     
 G  R18     
 G  R19     
 G  R20     
 G  R21     
 G  R22     
 G  R23     
 G  R24     
 G  R25     
 G  R26     
 G  R27     
 G  R28     
 G  R29     
 L  R30     
COLUMNS
    MARKER    'MARKER'                 'INTORG'
    A[0]      OBJ       1
    A[0]      R0        5
    A[0]      R1        4
    A[0]      R2        -20
    A[0]      R3        -40
    A[0]      R4        16
    A[0]      R5        100
    A[0]      R6        44
    A[0]      R7        -110
    A[0]      R8        -110
    A[0]      R9        44
    A[0]      R10       100
    A[0]      R11       16
    A[0]      R12       -40
    A[0]      R13       -20
    A[0]      R14       4
    A[0]      R15       5
    A[0]      R16       1
    A[0]      R17       12268
    A[0]      R18       19404
    A[0]      R19       24420
    A[0]      R20       24420
    A[0]      R21       19404
    A[0]      R22       12276
    A[0]      R23       6172
    A[0]      R24       2420
    A[0]      R25       700
    A[0]      R26       132
    A[0]      R27       12
    A[0]      R29       1
    A[0]      R30       1
    A[1]      OBJ       1
    A[1]      R0        3
    A[1]      R1        -4
    A[1]      R2        -20
    A[1]      R4        56
    A[1]      R5        28
    A[1]      R6        -84
    A[1]      R7        -70
    A[1]      R8        70
    A[1]      R9        84
    A[1]      R10       -28
    A[1]      R11       -56
    A[1]      R13       20
    A[1]      R14       4
    A[1]      R15       -3
    A[1]      R16       -1
    A[1]      R17       12348
    A[1]      R18       19524
    A[1]      R19       24380
    A[1]      R20       24240
    A[1]      R21       19364
    A[1]      R22       12404
    A[1]      R23       6244
    A[1]      R24       2380
    A[1]      R25       660
    A[1]      R26       132
    A[1]      R27       20
    A[1]      R28       2
    A[1]      R29       1
    A[1]      R30       1
    A[2]      OBJ       1
    A[2]      R0        1
    A[2]      R1        -8
    A[2]      R2        -8
    A[2]      R3        28
    A[2]      R4        28
    A[2]      R5        -56
    A[2]      R6        -56
    A[2]      R7        70
    A[2]      R8        70
    A[2]      R9        -56
    A[2]      R10       -56
    A[2]      R11       28
    A[2]      R12       28
    A[2]      R13       -8
    A[2]      R14       -8
    A[2]      R15       1
    A[2]      R16       1
    A[2]      R17       12432
    A[2]      R18       19504
    A[2]      R19       24232
    A[2]      R20       24240
    A[2]      R21       19504
    A[2]      R22       12432
    A[2]      R23       6160
    A[2]      R24       2352
    A[2]      R25       688
    A[2]      R26       144
    A[2]      R27       16
    A[2]      R29       1
    A[2]      R30       1
    A[3]      OBJ       1
    A[3]      R0        -1
    A[3]      R1        -8
    A[3]      R2        8
    A[3]      R3        28
    A[3]      R4        -28
    A[3]      R5        -56
    A[3]      R6        56
    A[3]      R7        70
    A[3]      R8        -70
    A[3]      R9        -56
    A[3]      R10       56
    A[3]      R11       28
    A[3]      R12       -28
    A[3]      R13       -8
    A[3]      R14       8
    A[3]      R15       1
    A[3]      R16       -1
    A[3]      R17       12432
    A[3]      R18       19392
    A[3]      R19       24240
    A[3]      R20       24372
    A[3]      R21       19504
    A[3]      R22       12320
    A[3]      R23       6160
    A[3]      R24       2408
    A[3]      R25       688
    A[3]      R26       128
    A[3]      R27       16
    A[3]      R28       2
    A[3]      R29       1
    A[3]      R30       1
    A[4]      OBJ       1
    A[4]      R0        -3
    A[4]      R1        -4
    A[4]      R2        20
    A[4]      R4        -56
    A[4]      R5        28
    A[4]      R6        84
    A[4]      R7        -70
    A[4]      R8        -70
    A[4]      R9        84
    A[4]      R10       28
    A[4]      R11       -56
    A[4]      R13       20
    A[4]      R14       -4
    A[4]      R15       -3
    A[4]      R16       1
    A[4]      R17       12348
    A[4]      R18       19364
    A[4]      R19       24380
    A[4]      R20       24380
    A[4]      R21       19356
    A[4]      R22       12348
    A[4]      R23       6244
    A[4]      R24       2380
    A[4]      R25       660
    A[4]      R26       140
    A[4]      R27       20
    A[4]      R29       1
    A[4]      R30       1
    A[5]      OBJ       1
    A[5]      R0        -5
    A[5]      R1        4
    A[5]      R2        20
    A[5]      R3        -40
    A[5]      R4        -16
    A[5]      R5        100
    A[5]      R6        -44
    A[5]      R7        -110
    A[5]      R8        110
    A[5]      R9        44
    A[5]      R10       -100
    A[5]      R11       16
    A[5]      R12       40
    A[5]      R13       -20
    A[5]      R14       -4
    A[5]      R15       5
    A[5]      R16       -1
    A[5]      R17       12276
    A[5]      R18       19492
    A[5]      R19       24420
    A[5]      R20       24200
    A[5]      R21       19404
    A[5]      R22       12468
    A[5]      R23       6172
    A[5]      R24       2340
    A[5]      R25       700
    A[5]      R26       140
    A[5]      R27       12
    A[5]      R28       2
    A[5]      R29       1
    A[5]      R30       1
    A[6]      OBJ       1
    A[6]      R0        -7
    A[6]      R1        16
    A[6]      R3        -60
    A[6]      R4        84
    A[6]      R5        32
    A[6]      R6        -176
    A[6]      R7        110
    A[6]      R8        110
    A[6]      R9        -176
    A[6]      R10       32
    A[6]      R11       84
    A[6]      R12       -60
    A[6]      R14       16
    A[6]      R15       -7
    A[6]      R16       1
    A[6]      R17       12344
    A[6]      R18       19624
    A[6]      R19       24200
    A[6]      R20       24200
    A[6]      R21       19624
    A[6]      R22       12344
    A[6]      R23       6096
    A[6]      R24       2440
    A[6]      R25       680
    A[6]      R26       120
    A[6]      R27       24
    A[6]      R29       1
    A[6]      R30       1
    A[7]      OBJ       1
    A[7]      R0        -9
    A[7]      R1        32
    A[7]      R2        -48
    A[7]      R3        -12
    A[7]      R4        156
    A[7]      R5        -208
    A[7]      R7        286
    A[7]      R8        -286
    A[7]      R10       208
    A[7]      R11       -156
    A[7]      R12       12
    A[7]      R13       48
    A[7]      R14       -32
    A[7]      R15       9
    A[7]      R16       -1
    A[7]      R17       12584
    A[7]      R18       19448
    A[7]      R19       24024
    A[7]      R20       24596
    A[7]      R21       19448
    A[7]      R22       12168
    A[7]      R23       6344
    A[7]      R24       2360
    A[7]      R25       632
    A[7]      R26       168
    A[7]      R27       8
    A[7]      R28       2
    A[7]      R29       1
    A[7]      R30       1
    A[8]      OBJ       1
    A[8]      R0        -11
    A[8]      R1        52
    A[8]      R2        -132
    A[8]      R3        168
    A[8]      R5        -364
    A[8]      R6        572
    A[8]      R7        -286
    A[8]      R8        -286
    A[8]      R9        572
    A[8]      R10       -364
    A[8]      R12       168
    A[8]      R13       -132
    A[8]      R14       52
    A[8]      R15       -11
    A[8]      R16       1
    A[8]      R17       12740
    A[8]      R18       18876
    A[8]      R19       24596
    A[8]      R20       24596
    A[8]      R21       18876
    A[8]      R22       12740
    A[8]      R23       6188
    A[8]      R24       2212
    A[8]      R25       804
    A[8]      R26       84
    A[8]      R27       28
    A[8]      R29       1
    A[8]      R30       1
    A[9]      OBJ       1
    A[9]      R0        -13
    A[9]      R1        76
    A[9]      R2        -260
    A[9]      R3        560
    A[9]      R4        -728
    A[9]      R5        364
    A[9]      R6        572
    A[9]      R7        -1430
    A[9]      R8        1430
    A[9]      R9        -572
    A[9]      R10       -364
    A[9]      R11       728
    A[9]      R12       -560
    A[9]      R13       260
    A[9]      R14       -76
    A[9]      R15       13
    A[9]      R16       -1
    A[9]      R17       12012
    A[9]      R18       18876
    A[9]      R19       25740
    A[9]      R20       22880
    A[9]      R21       20020
    A[9]      R22       12740
    A[9]      R23       5460
    A[9]      R24       2940
    A[9]      R25       420
    A[9]      R26       204
    A[9]      R27       4
    A[9]      R28       2
    A[9]      R29       1
    A[9]      R30       1
    A[10]     OBJ       1
    A[10]     R0        -15
    A[10]     R1        104
    A[10]     R2        -440
    A[10]     R3        1260
    A[10]     R4        -2548
    A[10]     R5        3640
    A[10]     R6        -3432
    A[10]     R7        1430
    A[10]     R8        1430
    A[10]     R9        -3432
    A[10]     R10       3640
    A[10]     R11       -2548
    A[10]     R12       1260
    A[10]     R13       -440
    A[10]     R14       104
    A[10]     R15       -15
    A[10]     R16       1
    A[10]     R17       8736
    A[10]     R18       22880
    A[10]     R19       22880
    A[10]     R20       22880
    A[10]     R21       22880
    A[10]     R22       8736
    A[10]     R23       8736
    A[10]     R24       1120
    A[10]     R25       1120
    A[10]     R26       32
    A[10]     R27       24
    A[10]     R29       1
    A[10]     R30       1
    A[11]     OBJ       1
    A[11]     R0        -17
    A[11]     R1        136
    A[11]     R2        -680
    A[11]     R3        2380
    A[11]     R4        -6188
    A[11]     R5        12376
    A[11]     R6        -19448
    A[11]     R7        24310
    A[11]     R8        -24310
    A[11]     R9        19448
    A[11]     R10       -12376
    A[11]     R11       6188
    A[11]     R12       -2380
    A[11]     R13       680
    A[11]     R14       -136
    A[11]     R15       17
    A[11]     R16       -1
    A[11]     R18       38896
    A[11]     R20       48620
    A[11]     R22       24752
    A[11]     R24       4760
    A[11]     R26       272
    A[11]     R28       -6
    A[11]     R29       1
    A[11]     R30       1
    MARKER    'MARKER'                 'INTEND'
RHS
    RHS1      R0        -17
    RHS1      R1        -136
    RHS1      R2        -680
    RHS1      R3        -2380
    RHS1      R4        -6188
    RHS1      R5        -12376
    RHS1      R6        -19448
    RHS1      R7        -24310
    RHS1      R8        -24310
    RHS1      R9        -19448
    RHS1      R10       -12376
    RHS1      R11       -6188
    RHS1      R12       -2380
    RHS1      R13       -680
    RHS1      R14       -136
    RHS1      R15       -17
    RHS1      R16       -1
    RHS1      R29       8
    RHS1      R30       512
BOUNDS
 UP BND1      A[0]      12376
 UP BND1      A[1]      19448
 UP BND1      A[2]      24310
 UP BND1      A[3]      24310
 UP BND1      A[4]      19448
 UP BND1      A[5]      12376
 UP BND1      A[6]      6188
 UP BND1      A[7]      2380
 UP BND1      A[8]      680
 UP BND1      A[9]      136
 UP BND1      A[10]     17
 UP BND1      A[11]     1
ENDATA
